NAME           C:\Bruker\Hvattum\knapsack\Problems\class1\100-5-01.mps
ROWS
 N  OBJ
 L  CONSTR1
 L  CONSTR2
 L  CONSTR3
 L  CONSTR4
 L  CONSTR5
COLUMNS
    INT0001   'MARKER'  'INTORG'
    X1        OBJ       504
    X1        CONSTR1   42
    X1        CONSTR2   509
    X1        CONSTR3   806
    X1        CONSTR4   404
    X1        CONSTR5   475
    X2        OBJ       803
    X2        CONSTR1   41
    X2        CONSTR2   883
    X2        CONSTR3   361
    X2        CONSTR4   197
    X2        CONSTR5   36
    X3        OBJ       667
    X3        CONSTR1   523
    X3        CONSTR2   229
    X3        CONSTR3   199
    X3        CONSTR4   817
    X3        CONSTR5   287
    X4        OBJ       1103
    X4        CONSTR1   215
    X4        CONSTR2   569
    X4        CONSTR3   781
    X4        CONSTR4   1000
    X4        CONSTR5   577
    X5        OBJ       834
    X5        CONSTR1   819
    X5        CONSTR2   706
    X5        CONSTR3   596
    X5        CONSTR4   44
    X5        CONSTR5   45
    X6        OBJ       585
    X6        CONSTR1   551
    X6        CONSTR2   639
    X6        CONSTR3   669
    X6        CONSTR4   307
    X6        CONSTR5   700
    X7        OBJ       811
    X7        CONSTR1   69
    X7        CONSTR2   114
    X7        CONSTR3   957
    X7        CONSTR4   39
    X7        CONSTR5   803
    X8        OBJ       856
    X8        CONSTR1   193
    X8        CONSTR2   727
    X8        CONSTR3   358
    X8        CONSTR4   659
    X8        CONSTR5   654
    X9        OBJ       690
    X9        CONSTR1   582
    X9        CONSTR2   491
    X9        CONSTR3   259
    X9        CONSTR4   46
    X9        CONSTR5   196
    X10       OBJ       832
    X10       CONSTR1   375
    X10       CONSTR2   481
    X10       CONSTR3   888
    X10       CONSTR4   334
    X10       CONSTR5   844
    X11       OBJ       846
    X11       CONSTR1   367
    X11       CONSTR2   681
    X11       CONSTR3   319
    X11       CONSTR4   448
    X11       CONSTR5   657
    X12       OBJ       813
    X12       CONSTR1   478
    X12       CONSTR2   948
    X12       CONSTR3   751
    X12       CONSTR4   599
    X12       CONSTR5   387
    X13       OBJ       868
    X13       CONSTR1   162
    X13       CONSTR2   687
    X13       CONSTR3   275
    X13       CONSTR4   931
    X13       CONSTR5   518
    X14       OBJ       793
    X14       CONSTR1   898
    X14       CONSTR2   941
    X14       CONSTR3   177
    X14       CONSTR4   776
    X14       CONSTR5   143
    X15       OBJ       825
    X15       CONSTR1   550
    X15       CONSTR2   350
    X15       CONSTR3   883
    X15       CONSTR4   263
    X15       CONSTR5   515
    X16       OBJ       1002
    X16       CONSTR1   553
    X16       CONSTR2   253
    X16       CONSTR3   749
    X16       CONSTR4   980
    X16       CONSTR5   335
    X17       OBJ       860
    X17       CONSTR1   298
    X17       CONSTR2   573
    X17       CONSTR3   229
    X17       CONSTR4   807
    X17       CONSTR5   942
    X18       OBJ       615
    X18       CONSTR1   577
    X18       CONSTR2   40
    X18       CONSTR3   265
    X18       CONSTR4   378
    X18       CONSTR5   701
    X19       OBJ       540
    X19       CONSTR1   493
    X19       CONSTR2   124
    X19       CONSTR3   282
    X19       CONSTR4   278
    X19       CONSTR5   332
    X20       OBJ       797
    X20       CONSTR1   183
    X20       CONSTR2   384
    X20       CONSTR3   694
    X20       CONSTR4   841
    X20       CONSTR5   803
    X21       OBJ       616
    X21       CONSTR1   260
    X21       CONSTR2   660
    X21       CONSTR3   819
    X21       CONSTR4   700
    X21       CONSTR5   265
    X22       OBJ       660
    X22       CONSTR1   224
    X22       CONSTR2   951
    X22       CONSTR3   77
    X22       CONSTR4   210
    X22       CONSTR5   922
    X23       OBJ       707
    X23       CONSTR1   852
    X23       CONSTR2   739
    X23       CONSTR3   190
    X23       CONSTR4   542
    X23       CONSTR5   908
    X24       OBJ       866
    X24       CONSTR1   394
    X24       CONSTR2   329
    X24       CONSTR3   551
    X24       CONSTR4   636
    X24       CONSTR5   139
    X25       OBJ       647
    X25       CONSTR1   958
    X25       CONSTR2   146
    X25       CONSTR3   140
    X25       CONSTR4   388
    X25       CONSTR5   995
    X26       OBJ       746
    X26       CONSTR1   282
    X26       CONSTR2   593
    X26       CONSTR3   442
    X26       CONSTR4   129
    X26       CONSTR5   845
    X27       OBJ       1006
    X27       CONSTR1   402
    X27       CONSTR2   658
    X27       CONSTR3   867
    X27       CONSTR4   203
    X27       CONSTR5   487
    X28       OBJ       608
    X28       CONSTR1   604
    X28       CONSTR2   816
    X28       CONSTR3   283
    X28       CONSTR4   110
    X28       CONSTR5   100
    X29       OBJ       877
    X29       CONSTR1   164
    X29       CONSTR2   638
    X29       CONSTR3   137
    X29       CONSTR4   817
    X29       CONSTR5   447
    X30       OBJ       900
    X30       CONSTR1   308
    X30       CONSTR2   717
    X30       CONSTR3   359
    X30       CONSTR4   502
    X30       CONSTR5   653
    X31       OBJ       573
    X31       CONSTR1   218
    X31       CONSTR2   779
    X31       CONSTR3   445
    X31       CONSTR4   657
    X31       CONSTR5   649
    X32       OBJ       788
    X32       CONSTR1   61
    X32       CONSTR2   289
    X32       CONSTR3   58
    X32       CONSTR4   804
    X32       CONSTR5   738
    X33       OBJ       484
    X33       CONSTR1   273
    X33       CONSTR2   430
    X33       CONSTR3   440
    X33       CONSTR4   662
    X33       CONSTR5   424
    X34       OBJ       853
    X34       CONSTR1   772
    X34       CONSTR2   851
    X34       CONSTR3   192
    X34       CONSTR4   989
    X34       CONSTR5   475
    X35       OBJ       942
    X35       CONSTR1   191
    X35       CONSTR2   937
    X35       CONSTR3   485
    X35       CONSTR4   585
    X35       CONSTR5   425
    X36       OBJ       630
    X36       CONSTR1   117
    X36       CONSTR2   289
    X36       CONSTR3   744
    X36       CONSTR4   645
    X36       CONSTR5   926
    X37       OBJ       591
    X37       CONSTR1   276
    X37       CONSTR2   159
    X37       CONSTR3   844
    X37       CONSTR4   113
    X37       CONSTR5   795
    X38       OBJ       630
    X38       CONSTR1   877
    X38       CONSTR2   260
    X38       CONSTR3   969
    X38       CONSTR4   436
    X38       CONSTR5   47
    X39       OBJ       640
    X39       CONSTR1   415
    X39       CONSTR2   930
    X39       CONSTR3   50
    X39       CONSTR4   610
    X39       CONSTR5   136
    X40       OBJ       1169
    X40       CONSTR1   873
    X40       CONSTR2   248
    X40       CONSTR3   833
    X40       CONSTR4   948
    X40       CONSTR5   801
    X41       OBJ       932
    X41       CONSTR1   902
    X41       CONSTR2   656
    X41       CONSTR3   57
    X41       CONSTR4   919
    X41       CONSTR5   904
    X42       OBJ       1034
    X42       CONSTR1   465
    X42       CONSTR2   833
    X42       CONSTR3   877
    X42       CONSTR4   115
    X42       CONSTR5   740
    X43       OBJ       957
    X43       CONSTR1   320
    X43       CONSTR2   892
    X43       CONSTR3   482
    X43       CONSTR4   967
    X43       CONSTR5   768
    X44       OBJ       798
    X44       CONSTR1   870
    X44       CONSTR2   60
    X44       CONSTR3   732
    X44       CONSTR4   13
    X44       CONSTR5   460
    X45       OBJ       669
    X45       CONSTR1   244
    X45       CONSTR2   278
    X45       CONSTR3   968
    X45       CONSTR4   445
    X45       CONSTR5   76
    X46       OBJ       625
    X46       CONSTR1   781
    X46       CONSTR2   741
    X46       CONSTR3   113
    X46       CONSTR4   449
    X46       CONSTR5   660
    X47       OBJ       467
    X47       CONSTR1   86
    X47       CONSTR2   297
    X47       CONSTR3   486
    X47       CONSTR4   740
    X47       CONSTR5   500
    X48       OBJ       1051
    X48       CONSTR1   622
    X48       CONSTR2   967
    X48       CONSTR3   710
    X48       CONSTR4   592
    X48       CONSTR5   915
    X49       OBJ       552
    X49       CONSTR1   665
    X49       CONSTR2   86
    X49       CONSTR3   439
    X49       CONSTR4   327
    X49       CONSTR5   897
    X50       OBJ       717
    X50       CONSTR1   155
    X50       CONSTR2   249
    X50       CONSTR3   747
    X50       CONSTR4   167
    X50       CONSTR5   25
    X51       OBJ       654
    X51       CONSTR1   680
    X51       CONSTR2   354
    X51       CONSTR3   174
    X51       CONSTR4   368
    X51       CONSTR5   716
    X52       OBJ       388
    X52       CONSTR1   101
    X52       CONSTR2   614
    X52       CONSTR3   260
    X52       CONSTR4   335
    X52       CONSTR5   557
    X53       OBJ       559
    X53       CONSTR1   665
    X53       CONSTR2   836
    X53       CONSTR3   877
    X53       CONSTR4   179
    X53       CONSTR5   72
    X54       OBJ       555
    X54       CONSTR1   227
    X54       CONSTR2   290
    X54       CONSTR3   474
    X54       CONSTR4   909
    X54       CONSTR5   696
    X55       OBJ       1104
    X55       CONSTR1   597
    X55       CONSTR2   893
    X55       CONSTR3   841
    X55       CONSTR4   825
    X55       CONSTR5   653
    X56       OBJ       783
    X56       CONSTR1   354
    X56       CONSTR2   857
    X56       CONSTR3   422
    X56       CONSTR4   614
    X56       CONSTR5   933
    X57       OBJ       959
    X57       CONSTR1   597
    X57       CONSTR2   158
    X57       CONSTR3   280
    X57       CONSTR4   987
    X57       CONSTR5   420
    X58       OBJ       668
    X58       CONSTR1   79
    X58       CONSTR2   869
    X58       CONSTR3   684
    X58       CONSTR4   350
    X58       CONSTR5   582
    X59       OBJ       507
    X59       CONSTR1   162
    X59       CONSTR2   206
    X59       CONSTR3   330
    X59       CONSTR4   179
    X59       CONSTR5   810
    X60       OBJ       855
    X60       CONSTR1   998
    X60       CONSTR2   504
    X60       CONSTR3   910
    X60       CONSTR4   415
    X60       CONSTR5   861
    X61       OBJ       986
    X61       CONSTR1   849
    X61       CONSTR2   799
    X61       CONSTR3   791
    X61       CONSTR4   821
    X61       CONSTR5   758
    X62       OBJ       831
    X62       CONSTR1   136
    X62       CONSTR2   758
    X62       CONSTR3   322
    X62       CONSTR4   525
    X62       CONSTR5   647
    X63       OBJ       821
    X63       CONSTR1   112
    X63       CONSTR2   431
    X63       CONSTR3   404
    X63       CONSTR4   774
    X63       CONSTR5   237
    X64       OBJ       825
    X64       CONSTR1   751
    X64       CONSTR2   580
    X64       CONSTR3   403
    X64       CONSTR4   283
    X64       CONSTR5   631
    X65       OBJ       868
    X65       CONSTR1   735
    X65       CONSTR2   780
    X65       CONSTR3   519
    X65       CONSTR4   427
    X65       CONSTR5   271
    X66       OBJ       852
    X66       CONSTR1   884
    X66       CONSTR2   788
    X66       CONSTR3   148
    X66       CONSTR4   275
    X66       CONSTR5   91
    X67       OBJ       832
    X67       CONSTR1   71
    X67       CONSTR2   583
    X67       CONSTR3   948
    X67       CONSTR4   659
    X67       CONSTR5   75
    X68       OBJ       828
    X68       CONSTR1   449
    X68       CONSTR2   641
    X68       CONSTR3   414
    X68       CONSTR4   392
    X68       CONSTR5   756
    X69       OBJ       799
    X69       CONSTR1   266
    X69       CONSTR2   32
    X69       CONSTR3   894
    X69       CONSTR4   73
    X69       CONSTR5   409
    X70       OBJ       686
    X70       CONSTR1   420
    X70       CONSTR2   653
    X70       CONSTR3   147
    X70       CONSTR4   896
    X70       CONSTR5   440
    X71       OBJ       510
    X71       CONSTR1   797
    X71       CONSTR2   252
    X71       CONSTR3   73
    X71       CONSTR4   68
    X71       CONSTR5   483
    X72       OBJ       671
    X72       CONSTR1   945
    X72       CONSTR2   709
    X72       CONSTR3   297
    X72       CONSTR4   982
    X72       CONSTR5   336
    X73       OBJ       575
    X73       CONSTR1   746
    X73       CONSTR2   129
    X73       CONSTR3   97
    X73       CONSTR4   697
    X73       CONSTR5   765
    X74       OBJ       740
    X74       CONSTR1   46
    X74       CONSTR2   368
    X74       CONSTR3   651
    X74       CONSTR4   421
    X74       CONSTR5   637
    X75       OBJ       510
    X75       CONSTR1   44
    X75       CONSTR2   440
    X75       CONSTR3   380
    X75       CONSTR4   246
    X75       CONSTR5   981
    X76       OBJ       675
    X76       CONSTR1   545
    X76       CONSTR2   314
    X76       CONSTR3   67
    X76       CONSTR4   672
    X76       CONSTR5   980
    X77       OBJ       996
    X77       CONSTR1   882
    X77       CONSTR2   287
    X77       CONSTR3   582
    X77       CONSTR4   649
    X77       CONSTR5   202
    X78       OBJ       636
    X78       CONSTR1   72
    X78       CONSTR2   854
    X78       CONSTR3   973
    X78       CONSTR4   731
    X78       CONSTR5   35
    X79       OBJ       826
    X79       CONSTR1   383
    X79       CONSTR2   460
    X79       CONSTR3   143
    X79       CONSTR4   191
    X79       CONSTR5   594
    X80       OBJ       1022
    X80       CONSTR1   714
    X80       CONSTR2   594
    X80       CONSTR3   732
    X80       CONSTR4   514
    X80       CONSTR5   689
    X81       OBJ       1140
    X81       CONSTR1   987
    X81       CONSTR2   512
    X81       CONSTR3   624
    X81       CONSTR4   983
    X81       CONSTR5   602
    X82       OBJ       654
    X82       CONSTR1   183
    X82       CONSTR2   239
    X82       CONSTR3   518
    X82       CONSTR4   886
    X82       CONSTR5   76
    X83       OBJ       909
    X83       CONSTR1   731
    X83       CONSTR2   719
    X83       CONSTR3   847
    X83       CONSTR4   95
    X83       CONSTR5   767
    X84       OBJ       799
    X84       CONSTR1   301
    X84       CONSTR2   751
    X84       CONSTR3   113
    X84       CONSTR4   846
    X84       CONSTR5   693
    X85       OBJ       1162
    X85       CONSTR1   718
    X85       CONSTR2   708
    X85       CONSTR3   382
    X85       CONSTR4   689
    X85       CONSTR5   893
    X86       OBJ       653
    X86       CONSTR1   91
    X86       CONSTR2   670
    X86       CONSTR3   97
    X86       CONSTR4   206
    X86       CONSTR5   160
    X87       OBJ       814
    X87       CONSTR1   109
    X87       CONSTR2   269
    X87       CONSTR3   905
    X87       CONSTR4   417
    X87       CONSTR5   785
    X88       OBJ       625
    X88       CONSTR1   567
    X88       CONSTR2   832
    X88       CONSTR3   398
    X88       CONSTR4   14
    X88       CONSTR5   311
    X89       OBJ       599
    X89       CONSTR1   708
    X89       CONSTR2   137
    X89       CONSTR3   859
    X89       CONSTR4   735
    X89       CONSTR5   417
    X90       OBJ       476
    X90       CONSTR1   507
    X90       CONSTR2   356
    X90       CONSTR3   4
    X90       CONSTR4   267
    X90       CONSTR5   748
    X91       OBJ       767
    X91       CONSTR1   983
    X91       CONSTR2   960
    X91       CONSTR3   142
    X91       CONSTR4   822
    X91       CONSTR5   375
    X92       OBJ       954
    X92       CONSTR1   808
    X92       CONSTR2   651
    X92       CONSTR3   110
    X92       CONSTR4   977
    X92       CONSTR5   362
    X93       OBJ       906
    X93       CONSTR1   766
    X93       CONSTR2   398
    X93       CONSTR3   11
    X93       CONSTR4   302
    X93       CONSTR5   617
    X94       OBJ       904
    X94       CONSTR1   615
    X94       CONSTR2   893
    X94       CONSTR3   213
    X94       CONSTR4   687
    X94       CONSTR5   553
    X95       OBJ       649
    X95       CONSTR1   554
    X95       CONSTR2   407
    X95       CONSTR3   398
    X95       CONSTR4   118
    X95       CONSTR5   474
    X96       OBJ       873
    X96       CONSTR1   282
    X96       CONSTR2   477
    X96       CONSTR3   173
    X96       CONSTR4   990
    X96       CONSTR5   915
    X97       OBJ       565
    X97       CONSTR1   995
    X97       CONSTR2   552
    X97       CONSTR3   106
    X97       CONSTR4   323
    X97       CONSTR5   457
    X98       OBJ       853
    X98       CONSTR1   946
    X98       CONSTR2   805
    X98       CONSTR3   331
    X98       CONSTR4   993
    X98       CONSTR5   261
    X99       OBJ       1008
    X99       CONSTR1   651
    X99       CONSTR2   881
    X99       CONSTR3   254
    X99       CONSTR4   525
    X99       CONSTR5   350
    X100      OBJ       632
    X100      CONSTR1   298
    X100      CONSTR2   850
    X100      CONSTR3   447
    X100      CONSTR4   322
    X100      CONSTR5   635
    INT0001   'MARKER'  'INTEND'
RHS
    RHS10001  CONSTR1   11927
    RHS10001  CONSTR2   13727
    RHS10001  CONSTR3   11551
    RHS10001  CONSTR4   13056
    RHS10001  CONSTR5   13460
BOUNDS
 BV BND       X1        .00
 BV BND       X2        .00
 BV BND       X3        .00
 BV BND       X4        .00
 BV BND       X5        .00
 BV BND       X6        .00
 BV BND       X7        .00
 BV BND       X8        .00
 BV BND       X9        .00
 BV BND       X10       .00
 BV BND       X11       .00
 BV BND       X12       .00
 BV BND       X13       .00
 BV BND       X14       .00
 BV BND       X15       .00
 BV BND       X16       .00
 BV BND       X17       .00
 BV BND       X18       .00
 BV BND       X19       .00
 BV BND       X20       .00
 BV BND       X21       .00
 BV BND       X22       .00
 BV BND       X23       .00
 BV BND       X24       .00
 BV BND       X25       .00
 BV BND       X26       .00
 BV BND       X27       .00
 BV BND       X28       .00
 BV BND       X29       .00
 BV BND       X30       .00
 BV BND       X31       .00
 BV BND       X32       .00
 BV BND       X33       .00
 BV BND       X34       .00
 BV BND       X35       .00
 BV BND       X36       .00
 BV BND       X37       .00
 BV BND       X38       .00
 BV BND       X39       .00
 BV BND       X40       .00
 BV BND       X41       .00
 BV BND       X42       .00
 BV BND       X43       .00
 BV BND       X44       .00
 BV BND       X45       .00
 BV BND       X46       .00
 BV BND       X47       .00
 BV BND       X48       .00
 BV BND       X49       .00
 BV BND       X50       .00
 BV BND       X51       .00
 BV BND       X52       .00
 BV BND       X53       .00
 BV BND       X54       .00
 BV BND       X55       .00
 BV BND       X56       .00
 BV BND       X57       .00
 BV BND       X58       .00
 BV BND       X59       .00
 BV BND       X60       .00
 BV BND       X61       .00
 BV BND       X62       .00
 BV BND       X63       .00
 BV BND       X64       .00
 BV BND       X65       .00
 BV BND       X66       .00
 BV BND       X67       .00
 BV BND       X68       .00
 BV BND       X69       .00
 BV BND       X70       .00
 BV BND       X71       .00
 BV BND       X72       .00
 BV BND       X73       .00
 BV BND       X74       .00
 BV BND       X75       .00
 BV BND       X76       .00
 BV BND       X77       .00
 BV BND       X78       .00
 BV BND       X79       .00
 BV BND       X80       .00
 BV BND       X81       .00
 BV BND       X82       .00
 BV BND       X83       .00
 BV BND       X84       .00
 BV BND       X85       .00
 BV BND       X86       .00
 BV BND       X87       .00
 BV BND       X88       .00
 BV BND       X89       .00
 BV BND       X90       .00
 BV BND       X91       .00
 BV BND       X92       .00
 BV BND       X93       .00
 BV BND       X94       .00
 BV BND       X95       .00
 BV BND       X96       .00
 BV BND       X97       .00
 BV BND       X98       .00
 BV BND       X99       .00
 BV BND       X100      .00
ENDATA
